c CNF formula generated by generate_input.py
c Number of variables: 25
c Number of clauses: 25
c Clause length: random between 1 and 4
p cnf 25 25
20 24 22 0
22 -4 -19 0
-24 11 14 -9 0
-22 4 2 0
14 -22 21 -13 0
10 22 -16 0
3 -1 0
-24 0
-6 -1 -20 0
-9 -25 6 -17 0
1 13 -4 0
-25 -12 18 0
-19 0
-13 -1 4 -9 0
21 10 -6 25 0
17 10 0
-20 -4 -7 21 0
-24 0
-1 -10 -6 7 0
-22 11 16 0
-22 17 0
4 0
21 6 -18 14 0
-24 19 0
-20 0
